200
120
100
100
100
100
100
99
98
97
96
96
96
95
95
94
93
93
93
92
90
90
90
89
89
89
88
87
87
87
86
83
82
81
81
80
80
80
79
79
79
78
77
77
77
77
76
76
76
75
73
72
72
72
72
71
70
68
68
68
68
67
66
66
66
66
66
65
65
65
63
63
63
62
61
60
60
60
60
58
58
57
57
56
56
56
56
55
55
55
55
55
53
52
51
51
50
50
50
50
49
49
48
48
48
48
47
47
46
46
45
45
45
45
43
43
42
41
40
40
40
40
40
39
39
39
39
39
38
38
37
36
35
35
34
34
34
33
33
31
30
30
30
27
27
25
25
24
24
23
23
23
23
22
22
21
21
20
19
19
19
19
19
18
18
17
17
17
16
16
15
15
15
14
14
14
13
13
12
12
12
12
12
10
9
9
9
9
9
9
9
8
7
5
5
4
4
3
2
1
1
1
